DIMENSIONES: 225
97
96
69
68
205
189
27
188
184
182
178
177
176
179
180
174
181
173
172
171
170
147
146
145
201
143
144
157
156
155
154
153
148
149
152
151
150
212
214
167
166
165
164
215
134
135
183
136
137
138
139
140
141
142
159
160
161
162
163
158
213
129
222
130
211
131
86
85
84
83
82
221
94
93
209
95
80
81
79
78
77
217
219
216
31
206
202
30
29
28
204
26
25
208
24
23
13
14
15
16
17
20
203
19
18
11
12
37
36
34
33
35
32
38
39
40
41
42
43
44
46
194
218
193
196
192
191
199
224
133
190
225
47
2
207
49
51
57
56
55
52
53
54
70
71
72
73
74
75
76
98
99
100
101
102
103
104
220
105
106
107
108
109
110
111
112
113
114
115
223
116
117
187
118
119
186
185
120
175
121
122
123
124
169
168
125
126
127
128
132
210
87
90
91
92
89
88
67
66
65
64
63
62
61
60
59
58
50
48
45
195
197
4
198
3
1
200
5
6
7
8
9
10
22
21
